Maximize
obj: x0_5 + x1_6 + x2_4 + x3_6 + x4_1 + x5_0 + x6_5 + x7_7 + x8_5 + x9_2 + x10_6 
Subject To
c1: x0_5 <= 1
c2: x1_6 <= 1
c3: x2_4 <= 1
c4: x3_6 <= 1
c5: x4_1 <= 1
c6: x5_0 <= 1
c7: x6_5 <= 1
c8: x7_7 <= 1
c9: x8_5 <= 1
c10: x9_2 <= 1
c11: x10_6 <= 1
c12: x5_0 <= 2
c13: x4_1 <= 1
c14: x9_2 <= 1
c15: <= 1
c16: x2_4 <= 1
c17: x0_5 + x6_5 + x8_5 <= 1
c18: x1_6 + x3_6 + x10_6 <= 1
c19: x7_7 <= 1
c20: <= 2
Bounds
0 <= x0_5 <= 1
0 <= x1_6 <= 1
0 <= x2_4 <= 1
0 <= x3_6 <= 1
0 <= x4_1 <= 1
0 <= x5_0 <= 1
0 <= x6_5 <= 1
0 <= x7_7 <= 1
0 <= x8_5 <= 1
0 <= x9_2 <= 1
0 <= x10_6 <= 1
Binary
x0_5 x1_6 x2_4 x3_6 x4_1 x5_0 x6_5 x7_7 x8_5 x9_2 x10_6 
End
